c File: instances/18_0.35_2.col
c
c Description: Random graph of size 18 vertices and P(0.35) of edges between any two vertices.
p col 18 153
e 1 11
e 1 14
e 1 15
e 1 17
e 2 8
e 2 9
e 2 10
e 2 11
e 2 14
e 2 17
e 2 18
e 3 4
e 3 5
e 3 9
e 3 14
e 3 15
e 4 5
e 4 8
e 4 9
e 4 12
e 4 13
e 4 18
e 5 8
e 5 9
e 5 10
e 5 13
e 6 10
e 6 11
e 6 12
e 6 13
e 6 17
e 6 18
e 7 9
e 7 12
e 7 17
e 8 13
e 8 18
e 9 10
e 9 11
e 9 16
e 9 18
e 10 14
e 10 15
e 11 13
e 11 15
e 11 17
e 12 14
e 12 17
e 13 14
e 13 15
e 14 18
e 15 17
e 16 18